Argumentos: 
./solver.release -i 13 -t 86400 -a 7 -h 86400 -w Testes/R1-i13 -m R1_modeloCom2345.mod -o R1_modeloCom2345.mod 
Seed: 1622927738
hidden-TXT/Sc-n070w4.txt
hidden-TXT/H0-n070w4-0.txt
hidden-TXT/WD-n070w4-4.txt hidden-TXT/WD-n070w4-9.txt hidden-TXT/WD-n070w4-7.txt hidden-TXT/WD-n070w4-6.txt 
Reading model section from R1_modeloCom2345.mod...
367 lines were read
Reading data section from Testes/R1-i13/13.dat...
13093 lines were read
Generating obj...
Generating H1turnoDia...
Generating H2coberturaMinima...
Generating H3AsucessaoTurnos...
Generating H3BsucessaoTurnos...
Generating H4qualificacao...
Generating S1coberturaOtima...
Generating auxS5...
Generating S6a...
Generating S6b...
Generating auxS7...
Generating S7...
Model has been successfully generated
Writing problem data to `Testes/R1-i13/13.lp'...
243967 lines were written
CPX0000  Tried aggregator 2 times.
CPX0000  MIP Presolve eliminated 14132 rows and 58134 columns.
CPX0000  MIP Presolve modified 3776 coefficients.
CPX0000  Aggregator did 1 substitutions.
CPX0000  Reduced MIP has 6809 rows, 14772 columns, and 85167 nonzeros.
CPX0000  Reduced MIP has 14357 binaries, 415 generals, 0 SOSs, and 0 indicators.
CPX0000  Presolve time = 0.16 sec. (108.87 ticks)
CPX0000  Found incumbent of value 260290.000000 after 0.35 sec. (227.31 ticks)
[1m[30m[ZEN] [0m00:00:00 [1m[34m 260290.00[1m[32m  100.00%
[0mCPX0000  Probing time = 0.01 sec. (5.50 ticks)
CPX0000  Tried aggregator 1 time.
CPX0000  Reduced MIP has 6809 rows, 14772 columns, and 85167 nonzeros.
CPX0000  Reduced MIP has 14357 binaries, 415 generals, 0 SOSs, and 0 indicators.
CPX0000  Presolve time = 0.04 sec. (33.74 ticks)
CPX0000  Probing time = 0.01 sec. (5.13 ticks)
CPX0000  Clique table members: 9916.
CPX0000  MIP emphasis: balance optimality and feasibility.
CPX0000  MIP search method: dynamic search.
CPX0000  Parallel mode: none, using 1 thread.
CPX0000  Root relaxation solution time = 0.96 sec. (730.21 ticks)
CPX0000
CPX0000          Nodes                                         Cuts/
CPX0000     Node  Left     Objective  IInf  Best Integer    Best Bound    ItCnt     Gap
CPX0000
CPX0000  *     0+    0                       260290.0000        0.0000     5640  100.00%
CPX0000        0     0        0.0000   790   260290.0000        0.0000     5640  100.00%
CPX0000  *     0+    0                         3730.0000        0.0000     5640  100.00%
[1m[30m[ZEN] [0m00:00:01 [1m[34m   3730.00[1m[32m  100.00%
[0mCPX0000        0     0        0.0000    76     3730.0000      Cuts: 36     6454  100.00%
CPX0000        0     0        0.0000   149     3730.0000     Cuts: 249     7596  100.00%
CPX0000        0     0        0.0000    75     3730.0000      Cuts: 15     8004  100.00%
CPX0000  *     0+    0                          480.0000        0.0000     8004  100.00%
CPX0000  *     0+    0                          460.0000        0.0000     8004  100.00%
CPX0000  *     0+    0                          420.0000        0.0000     8004  100.00%
CPX0000  *     0+    0                          400.0000        0.0000     8004  100.00%
CPX0000  *     0+    0                          370.0000        0.0000     8004  100.00%
CPX0000  *     0+    0                          320.0000        0.0000     8004  100.00%
[1m[30m[ZEN] [0m00:00:14 [1m[34m    320.00[1m[32m  100.00%
[0mCPX0000        0     0        0.0000   107      320.0000     Cuts: 134     8868  100.00%
CPX0000  *     0+    0                          150.0000        0.0000     8868  100.00%
CPX0000  *     0+    0                          140.0000        0.0000     8868  100.00%
[1m[30m[ZEN] [0m00:00:18 [1m[34m    140.00[1m[32m  100.00%
[0mCPX0000        0     2        0.0000    12      140.0000        0.0000     8868  100.00%
CPX0000  Elapsed time = 19.01 sec. (13046.13 ticks, tree = 0.00 MB
CPX0000       40    42       60.0000    15      140.0000        0.0000     9957  100.00%
CPX0000       58    60       60.0000    13      140.0000        0.0000    11537  100.00%
CPX0000       64    66       60.0000    14      140.0000        0.0000    13246  100.00%
CPX0000       69    71       60.0000    23      140.0000        0.0000    14950  100.00%
CPX0000       73    75       60.0000   120      140.0000        0.0000    16712  100.00%
CPX0000       77    79       60.0000    50      140.0000        0.0000    18161  100.00%
CPX0000       87    89       60.0000    79      140.0000        0.0000    19882  100.00%
CPX0000      100   102       60.0000    22      140.0000        0.0000    21463  100.00%
CPX0000      105   107       60.0000    22      140.0000        0.0000    22892  100.00%
CPX0000      124   126       60.0000    18      140.0000        0.0000    28012  100.00%
CPX0000  Elapsed time = 23.34 sec. (16495.80 ticks, tree = 1.82 MB
CPX0000      158   160       60.0000    15      140.0000        0.0000    34058  100.00%
CPX0000      187   189       70.0000    15      140.0000        0.0000    40665  100.00%
CPX0000      209   211       70.0000   114      140.0000        0.0000    46132  100.00%
CPX0000      224   226       70.0000    14      140.0000        0.0000    52531  100.00%
CPX0000      237   239       70.0000    64      140.0000        0.0000    60835  100.00%
CPX0000      255   257       85.0000    77      140.0000        0.0000    68034  100.00%
CPX0000      284   286       80.0000    31      140.0000        0.0000    74964  100.00%
CPX0000  *   300   292      integral     0      110.0000        0.0000    76950  100.00%
[1m[30m[ZEN] [0m00:00:31 [1m[34m    110.00[1m[32m  100.00%
[0mCPX0000      360   352        0.0000   109      110.0000        0.0000    80915  100.00%
CPX0000  *   400+  259                           70.0000        0.0000    83748  100.00%
CPX0000  *   400+  129                           50.0000        0.0000    83748  100.00%
CPX0000      400   131        0.0000    65       50.0000        0.0000    83748  100.00%
CPX0000  Elapsed time = 34.03 sec. (25914.75 ticks, tree = 9.12 MB
[1m[30m[ZEN] [0m00:00:34 [1m[34m     50.00[1m[32m  100.00%
[0mCPX0000      464   186        0.0000   166       50.0000        0.0000    88109  100.00%
CPX0000      511   233        0.0000   297       50.0000        0.0000    91494  100.00%
CPX0000      512   234        0.0000   370       50.0000        0.0000    93026  100.00%
CPX0000  *   513+  156                           30.0000        0.0000   105421  100.00%
[1m[30m[ZEN] [0m00:00:56 [1m[34m     30.00[1m[32m  100.00%
[0mCPX0000      513   157        0.0000    62       30.0000        0.0000   105421  100.00%
CPX0000      536   171        0.0000    77       30.0000        0.0000   106536  100.00%
CPX0000      543   176        0.0000    89       30.0000        0.0000   106821  100.00%
CPX0000      567   155       20.0000    90       30.0000        0.0000   107494  100.00%
CPX0000      595   163        0.0000    49       30.0000        0.0000   109026  100.00%
CPX0000      613   171       10.0000    41       30.0000        0.0000   109333  100.00%
CPX0000      653   175        0.0000    64       30.0000        0.0000   110093  100.00%
CPX0000  Elapsed time = 62.60 sec. (51092.59 ticks, tree = 8.77 MB
CPX0000      681   159       10.0000   213       30.0000        0.0000   112900  100.00%
CPX0000      695   157        0.0000   168       30.0000        0.0000   117468  100.00%
CPX0000      710   156       10.0000   228       30.0000        0.0000   120770  100.00%
CPX0000      722   158       10.0000   240       30.0000        0.0000   122455  100.00%
CPX0000      738   152       10.0000   239       30.0000        0.0000   125921  100.00%
CPX0000      756   148        0.0000   210       30.0000        0.0000   129129  100.00%
CPX0000      780   146        0.0000    51       30.0000        0.0000   133248  100.00%
CPX0000      813   161        0.0000   136       30.0000        0.0000   137859  100.00%
CPX0000      824   169        0.0000   264       30.0000        0.0000   140076  100.00%
CPX0000      835   174        5.0000   307       30.0000        0.0000   142520  100.00%
CPX0000  Elapsed time = 72.87 sec. (61992.83 ticks, tree = 5.23 MB
CPX0000      852   173       10.0000   341       30.0000        0.0000   147072  100.00%
CPX0000      888   193        0.0000    50       30.0000        0.0000   149954  100.00%
CPX0000      928   223        0.0000   142       30.0000        0.0000   151880  100.00%
CPX0000      961   246        0.0000    95       30.0000        0.0000   153727  100.00%
CPX0000      987   267        0.0000    39       30.0000        0.0000   156357  100.00%
CPX0000     1006   286        0.0000    79       30.0000        0.0000   160092  100.00%
CPX0000     1026   300        0.0000    53       30.0000        0.0000   162297  100.00%
CPX0000     1038   308        0.0000   107       30.0000        0.0000   164829  100.00%
CPX0000     1063   324        0.0000    22       30.0000        0.0000   166861  100.00%
CPX0000     1088   347        0.0000   131       30.0000        0.0000   169112  100.00%
CPX0000  Elapsed time = 82.31 sec. (72072.92 ticks, tree = 7.41 MB
CPX0000     1115   365        0.0000    98       30.0000        0.0000   171520  100.00%
CPX0000     1127   377        0.0000    80       30.0000        0.0000   173519  100.00%
CPX0000     1152   393        0.0000    61       30.0000        0.0000   176482  100.00%
CPX0000     1184   416        0.0000   102       30.0000        0.0000   178694  100.00%
CPX0000     1235   448        0.0000    26       30.0000        0.0000   181394  100.00%
CPX0000     1265   462        0.0000   100       30.0000        0.0000   183044  100.00%
CPX0000     1301   480        0.0000    97       30.0000        0.0000   185143  100.00%
CPX0000     1320   495        0.0000    58       30.0000        0.0000   187264  100.00%
CPX0000     1337   504        0.0000    25       30.0000        0.0000   190558  100.00%
CPX0000     1406   535        0.0000    23       30.0000        0.0000   193943  100.00%
CPX0000  Elapsed time = 92.59 sec. (82281.93 ticks, tree = 13.47 MB
CPX0000     1419   548        0.0000    85       30.0000        0.0000   197482  100.00%
CPX0000     1430   559        0.0000    69       30.0000        0.0000   199924  100.00%
CPX0000     1482   582    infeasible             30.0000        0.0000   201898  100.00%
CPX0000     1521   603        0.0000    20       30.0000        0.0000   205055  100.00%
CPX0000     1561   622        0.0000    79       30.0000        0.0000   207958  100.00%
CPX0000     1571   632        0.0000   125       30.0000        0.0000   210986  100.00%
CPX0000     1615   659        0.0000    54       30.0000        0.0000   214867  100.00%
CPX0000     1649   671        0.0000    22       30.0000        0.0000   216411  100.00%
CPX0000     1665   685        0.0000    63       30.0000        0.0000   219659  100.00%
CPX0000     1694   707       10.0000    73       30.0000        0.0000   223458  100.00%
CPX0000  Elapsed time = 102.43 sec. (92221.47 ticks, tree = 16.47 MB
CPX0000     1713   722        0.0000    29       30.0000        0.0000   224964  100.00%
CPX0000     1768   754        0.0000    20       30.0000        0.0000   226720  100.00%
CPX0000     1818   761        0.0000    23       30.0000        0.0000   228558  100.00%
CPX0000     1856   774        0.0000    56       30.0000        0.0000   231617  100.00%
CPX0000     1893   797        0.0000    57       30.0000        0.0000   234605  100.00%
CPX0000     1923   817        0.0000    63       30.0000        0.0000   237717  100.00%
CPX0000     1960   837        0.0000    25       30.0000        0.0000   240173  100.00%
CPX0000     2004   865        0.0000    97       30.0000        0.0000   242882  100.00%
CPX0000     2051   884       10.0000   153       30.0000        0.0000   245588  100.00%
CPX0000     2077   905    infeasible             30.0000        0.0000   248002  100.00%
CPX0000  Elapsed time = 112.11 sec. (102346.01 ticks, tree = 27.50 MB
CPX0000     2116   926        0.0000    24       30.0000        0.0000   251227  100.00%
CPX0000     2151   957        0.0000   112       30.0000        0.0000   254313  100.00%
CPX0000     2180   977        0.0000    80       30.0000        0.0000   258745  100.00%
CPX0000     2227  1000        0.0000    51       30.0000        0.0000   261563  100.00%
CPX0000     2282  1031        0.0000   103       30.0000        0.0000   264772  100.00%
CPX0000     2312  1055        0.0000   116       30.0000        0.0000   267719  100.00%
CPX0000     2341  1081        0.0000   199       30.0000        0.0000   269674  100.00%
CPX0000     2423  1121        0.0000    18       30.0000        0.0000   274017  100.00%
CPX0000     2468  1147        0.0000    31       30.0000        0.0000   277215  100.00%
CPX0000     2531  1188        0.0000   123       30.0000        0.0000   279910  100.00%
CPX0000  Elapsed time = 121.26 sec. (112158.13 ticks, tree = 45.29 MB
CPX0000     2574  1215        0.0000    86       30.0000        0.0000   283058  100.00%
CPX0000     2661  1250        0.0000    86       30.0000        0.0000   286987  100.00%
CPX0000     2673  1258        0.0000    23       30.0000        0.0000   287649  100.00%
CPX0000     2766  1303        0.0000   114       30.0000        0.0000   290932  100.00%
CPX0000     2826  1338        0.0000    81       30.0000        0.0000   294434  100.00%
CPX0000     2844  1356        0.0000   125       30.0000        0.0000   297477  100.00%
CPX0000     2885  1381        0.0000   169       30.0000        0.0000   300324  100.00%
CPX0000     2936  1403        0.0000   128       30.0000        0.0000   303724  100.00%
CPX0000     2966  1429        0.0000   114       30.0000        0.0000   307306  100.00%
CPX0000     3180  1548        0.0000   170       30.0000        0.0000   318788  100.00%
CPX0000  Elapsed time = 133.90 sec. (124973.09 ticks, tree = 70.92 MB
CPX0000     3360  1654        0.0000    91       30.0000        0.0000   331709  100.00%
CPX0000     3490  1716        0.0000   186       30.0000        0.0000   341303  100.00%
CPX0000     3639  1797        0.0000    70       30.0000        0.0000   355593  100.00%
CPX0000     3943  1909        0.0000   221       30.0000        0.0000   370057  100.00%
CPX0000     4340  2028    infeasible             30.0000        0.0000   382456  100.00%
CPX0000     4711  2170        0.0000    67       30.0000        0.0000   398018  100.00%
CPX0000     5018  2239        0.0000    64       30.0000        0.0000   412440  100.00%
CPX0000     5321  2290        0.0000   100       30.0000        0.0000   424712  100.00%
CPX0000     5718  2323        0.0000    47       30.0000        0.0000   436518  100.00%
CPX0000     6164  2378    infeasible             30.0000        0.0000   448816  100.00%
CPX0000  Elapsed time = 173.89 sec. (163875.32 ticks, tree = 85.68 MB
CPX0000     6437  2426        0.0000   208       30.0000        0.0000   456534  100.00%
CPX0000     6919  2532        0.0000   130       30.0000        0.0000   471326  100.00%
CPX0000     7498  2599        0.0000   124       30.0000        0.0000   485230  100.00%
CPX0000     7965  2609        0.0000   107       30.0000        0.0000   496954  100.00%
CPX0000     8382  2682       10.0000   210       30.0000        0.0000   510444  100.00%
CPX0000     8863  2780        0.0000   102       30.0000        0.0000   524306  100.00%
CPX0000     9277  2864    infeasible             30.0000        0.0000   535793  100.00%
CPX0000     9773  2909        0.0000    86       30.0000        0.0000   547328  100.00%
CPX0000    10313  3021        0.0000    49       30.0000        0.0000   563658  100.00%
CPX0000  * 10315     0      integral     0       30.0000                 577105    0.00%
CPX0000  Elapsed time = 224.58 sec. (214042.80 ticks, tree = 0.00 MB
CPX0000
CPX0000  GUB cover cuts applied:  124
CPX0000  Clique cuts applied:  764
CPX0000  Cover cuts applied:  126
CPX0000  Mixed integer rounding cuts applied:  27
CPX0000  Zero-half cuts applied:  118
CPX0000  Gomory fractional cuts applied:  71
CPX0000
CPX0000  Root node processing (before b&c):
CPX0000    Real time             =   18.98 sec. (13022.37 ticks)
CPX0000  Sequential b&c:
CPX0000    Real time             =  205.61 sec. (201027.88 ticks)
CPX0000                            ------------
CPX0000  Total (root+branch&cut) =  224.59 sec. (214050.25 ticks)
H2 understaffing: 0
H3 shiftTypeSuccessions: 0
S1 optimalCoverage: 30
S2a consecutiveShift: 12585 = (832,7 )
S2b consecutiveWorkingDays: 22200 = ( 611,129 )
S3 consecutiveDaysOff: 15510 = ( 506,11 )
S4 preferences: 0
S5 completeWeekend: 0
S6 totalAssignments: 0
S7 totalWorkingWeekeends: 0
 

Cost Solution: 50325

      |M|T|W|T|F|S|S| |M|T|W|T|F|S|S| |M|T|W|T|F|S|S| |M|T|W|T|F|S|S|
-----------------------------------------------------------------------
HN_0  |-|-|-|L|L|L|-| |E|E|D|-|L|-|-| |-|E|-|-|N|-|-| |-|-|L|-|D|-|-|
HN_1  |-|N|-|L|-|D|L| |-|E|-|E|E|-|-| |D|L|-|-|D|-|-| |E|-|-|D|E|E|E|
HN_2  |D|-|N|-|-|N|N| |-|-|L|-|L|-|-| |-|L|L|-|L|L|L| |L|-|E|L|L|-|-|
HN_3  |-|D|D|L|-|-|-| |-|-|-|E|-|-|-| |-|D|-|N|-|N|-| |-|L|L|N|N|-|-|
HN_4  |D|N|-|E|D|E|L| |L|-|E|-|N|-|-| |-|L|N|-|-|-|-| |-|D|D|-|-|L|N|
HN_5  |E|-|N|-|D|-|-| |D|-|N|-|L|N|-| |E|-|-|D|N|-|-| |-|N|-|-|-|-|-|
HN_6  |-|-|E|N|-|-|-| |L|-|-|E|-|L|L| |L|-|E|D|D|E|E| |-|L|L|-|L|-|-|
HN_7  |N|-|E|D|-|-|-| |E|L|-|N|-|E|E| |-|D|-|-|-|D|D| |-|D|D|L|L|-|-|
NU_8  |L|N|-|-|-|-|-| |E|L|-|L|N|-|-| |D|E|D|E|L|-|-| |L|-|L|L|N|-|-|
NU_9  |L|L|-|N|N|-|-| |L|-|N|-|N|-|-| |E|L|L|-|-|N|N| |-|-|-|D|-|D|D|
NU_10 |N|-|N|-|D|L|L| |-|N|-|-|-|N|N| |N|-|D|E|D|-|-| |D|-|N|-|N|-|-|
NU_11 |N|-|D|N|N|-|-| |D|E|D|E|N|-|-| |E|E|D|L|L|L|N| |N|-|D|E|E|N|N|
NU_12 |N|-|N|-|-|E|D| |D|N|-|L|N|-|-| |D|L|L|-|N|-|-| |E|-|N|N|-|-|-|
NU_13 |N|-|-|-|E|N|-| |-|E|N|-|-|-|-| |L|L|-|-|D|-|-| |L|N|-|D|-|-|-|
NU_14 |D|E|E|D|E|-|-| |N|-|-|D|D|-|-| |N|-|N|-|E|-|-| |N|-|E|E|L|-|-|
NU_15 |L|L|-|D|L|L|L| |N|-|L|N|-|-|-| |D|-|E|-|N|-|-| |N|-|L|N|-|-|-|
NU_16 |D|D|-|D|N|-|-| |D|D|D|L|L|-|-| |N|-|N|-|-|N|N| |-|-|N|-|N|-|-|
NU_17 |-|D|-|-|D|-|-| |D|D|-|-|E|-|E| |-|D|-|L|-|-|-| |-|L|-|L|L|-|-|
NU_18 |N|-|L|L|-|D|E| |-|L|N|N|-|-|-| |-|N|N|-|D|-|-| |L|-|-|E|-|E|N|
NU_19 |N|-|E|N|-|-|-| |-|L|L|L|-|-|-| |-|L|L|N|-|D|E| |D|D|N|-|E|-|-|
NU_20 |E|D|L|L|N|N|N| |N|N|-|E|E|-|-| |N|N|N|N|N|-|-| |E|D|E|-|E|E|D|
NU_21 |-|-|N|N|-|-|-| |-|L|-|E|L|-|-| |-|-|L|-|-|-|-| |-|E|D|-|E|L|N|
NU_22 |L|L|L|L|N|-|-| |E|D|D|D|E|L|L| |N|N|N|N|N|N|N| |N|N|-|-|D|-|-|
NU_23 |D|L|L|L|-|-|-| |-|N|N|-|-|D|D| |E|N|-|D|L|-|-| |-|L|-|E|N|-|-|
NU_24 |-|L|L|-|-|-|-| |L|-|-|N|-|N|-| |-|N|-|L|-|-|-| |E|N|-|E|E|-|-|
NU_25 |-|E|D|E|D|E|E| |L|-|L|N|N|-|-| |E|D|E|L|L|-|-| |E|E|E|D|D|E|D|
NU_26 |D|-|D|E|N|-|-| |E|D|E|D|E|D|E| |D|E|E|E|-|-|-| |D|D|D|E|L|L|L|
NU_27 |E|E|E|E|L|-|-| |N|N|-|E|D|-|-| |D|D|D|D|E|L|L| |N|N|N|N|-|D|E|
NU_28 |L|-|N|N|-|N|N| |N|-|E|D|E|-|-| |N|-|L|-|D|-|-| |-|E|-|D|D|-|-|
NU_29 |E|D|L|-|E|-|-| |L|-|E|L|L|-|-| |-|E|-|E|E|-|-| |N|-|L|-|-|D|E|
NU_30 |-|L|L|-|E|-|-| |L|L|N|-|-|N|N| |-|N|N|-|L|-|-| |-|D|D|-|-|E|D|
NU_31 |E|E|E|E|L|-|-| |D|D|E|E|E|-|-| |D|D|D|E|E|E|D| |D|E|D|L|N|-|-|
NU_32 |N|N|-|D|L|-|-| |-|-|L|-|-|-|-| |-|D|N|-|-|-|-| |-|E|N|-|L|-|L|
NU_33 |L|L|-|E|D|D|D| |D|E|E|D|D|L|L| |L|L|L|N|N|-|-| |L|-|N|N|N|-|-|
NU_34 |N|-|D|L|-|-|-| |-|L|L|-|-|-|D| |-|N|-|E|-|-|-| |E|-|L|N|-|-|-|
NU_35 |-|L|L|-|E|-|-| |L|L|-|D|L|-|-| |L|-|-|E|D|E|E| |-|D|N|-|E|-|-|
NU_36 |-|-|-|-|D|-|-| |L|N|-|-|E|-|-| |-|-|L|-|D|-|-| |-|D|L|L|-|E|E|
NU_37 |-|D|D|E|N|-|-| |N|N|-|D|D|-|-| |N|-|D|N|N|-|-| |D|E|-|-|D|-|-|
NU_38 |E|E|D|L|-|-|-| |-|D|L|-|-|-|-| |-|-|L|-|E|-|-| |E|-|-|N|N|-|-|
NU_39 |-|N|-|D|N|-|-| |E|N|N|N|N|-|-| |-|L|N|-|E|-|-| |L|L|-|D|L|-|-|
CT_40 |E|L|-|E|D|D|E| |-|N|-|D|N|-|-| |L|-|-|L|L|-|-| |-|L|-|D|E|-|-|
CT_41 |-|-|-|-|L|N|-| |D|D|L|-|-|-|-| |L|-|D|-|-|-|-| |L|-|D|D|L|-|-|
CT_42 |-|E|D|D|D|D|E| |E|D|N|N|N|-|-| |D|D|L|L|L|L|L| |-|E|E|D|L|-|-|
CT_43 |L|N|-|-|L|-|-| |D|D|L|L|-|-|-| |D|-|-|-|-|-|-| |D|N|-|-|D|-|-|
CT_44 |E|E|E|E|E|N|N| |-|E|D|L|L|-|-| |D|E|E|N|N|-|-| |L|-|D|E|D|D|L|
CT_45 |E|N|N|N|N|-|-| |D|E|D|D|N|N|N| |-|D|E|E|E|-|-| |-|E|D|E|L|N|N|
CT_46 |D|D|-|D|E|E|D| |E|L|L|N|-|-|-| |L|N|N|N|N|-|-| |D|E|D|D|D|L|L|
CT_47 |N|-|N|-|-|-|-| |-|-|L|L|-|D|D| |-|D|L|-|E|D|E| |-|D|L|L|N|-|-|
CT_48 |-|D|N|-|-|-|-| |-|-|D|E|-|D|D| |E|N|N|-|-|E|E| |E|D|E|N|-|-|-|
CT_49 |D|D|E|E|E|-|-| |D|E|E|E|E|-|-| |N|N|-|D|D|D|D| |D|-|D|D|E|E|D|
CT_50 |-|-|-|-|E|-|-| |N|-|E|-|L|-|-| |E|-|-|D|-|L|-| |L|L|N|N|-|-|-|
CT_51 |N|N|N|N|N|-|-| |-|-|-|-|-|-|-| |L|-|-|N|N|-|D| |-|D|L|-|-|-|-|
CT_52 |-|N|-|L|-|-|-| |-|E|E|E|L|-|-| |-|D|D|E|N|-|-| |E|L|L|L|N|-|-|
CT_53 |D|E|D|N|N|-|-| |N|N|N|-|D|E|E| |D|E|-|E|D|N|N| |N|N|N|N|N|-|-|
CT_54 |E|E|D|D|D|L|L| |L|L|N|N|N|-|-| |-|E|E|D|D|N|N| |N|N|N|-|D|-|-|
CT_55 |L|-|E|D|D|E|D| |E|E|D|D|D|-|-| |D|E|D|D|E|-|-| |N|-|E|E|E|D|N|
CT_56 |E|N|N|-|L|-|-| |D|D|E|D|D|D|D| |E|-|E|D|D|D|E| |D|L|L|L|N|-|-|
CT_57 |-|D|-|E|L|-|-| |E|N|N|-|L|-|-| |-|D|-|D|E|-|-| |-|E|-|D|D|D|L|
CT_58 |L|L|-|D|L|N|N| |N|-|L|L|-|-|-| |L|-|L|L|L|-|-| |-|-|D|-|E|-|-|
CT_59 |D|-|L|L|L|-|-| |-|-|D|-|E|L|L| |-|E|L|N|-|-|-| |-|D|E|L|L|-|-|
TR_60 |D|E|D|L|L|-|-| |D|E|E|D|E|E|E| |-|E|D|D|E|D|E| |E|L|-|E|E|-|-|
TR_61 |N|-|-|-|N|-|-| |-|E|D|-|-|D|-| |D|D|-|L|-|-|-| |E|-|-|-|N|-|-|
TR_62 |E|D|D|E|D|-|-| |-|L|L|L|L|-|-| |L|-|D|D|E|N|N| |N|-|E|N|N|N|N|
TR_63 |-|D|-|-|N|-|L| |-|L|-|E|N|-|-| |L|L|-|-|L|-|-| |-|N|-|L|-|-|-|
TR_64 |L|N|-|-|L|L|N| |-|D|E|L|N|-|-| |N|N|-|-|-|E|E| |-|D|-|-|E|-|-|
TR_65 |L|L|L|N|-|-|-| |L|N|-|E|D|D|L| |-|D|L|L|N|-|-| |D|-|E|N|-|D|D|
TR_66 |-|E|L|-|E|-|E| |E|N|-|-|-|-|-| |-|D|E|-|-|-|-| |-|L|-|L|L|-|-|
TR_67 |D|-|N|-|D|D|D| |-|D|-|-|E|-|-| |-|-|-|E|D|-|-| |-|N|-|-|D|-|-|
TR_68 |N|-|E|-|E|-|-| |-|-|D|D|D|N|N| |-|-|E|E|-|L|N| |-|E|D|-|L|-|-|
TR_69 |D|-|E|D|N|-|-| |N|N|N|-|N|-|-| |E|-|N|N|N|N|N| |-|D|D|D|D|L|L|


Hard constraint violations
--------------------------

Minimal coverage constraints: 0
Required skill constraints: 0
Illegal shift type succession constraints: 0
Single assignment per day: 0


Cost per constraint type
------------------------

Total assignment constraints: 0
Consecutive constraints: 34785
Non working days constraints: 15510
Preferences: 0
Max working weekend: 0
Complete weekends: 0
Optimal coverage constraints: 30

------------------------

Total cost: 50325
